c read Graph
c width = 9
c time = 33 ms
c width = 1
c time = 72 ms
c width = 1
c time = 4960 ms
s td 735 2 924
b 1 613 614
b 2 1 613
b 3 221 222
b 4 2 221
b 5 505 506
b 6 2 505
b 7 3 699
b 8 4 206
b 9 701 702
b 10 5 701
b 11 5 694
b 12 693 694
b 13 4 693
b 14 6 264
b 15 7 356
b 16 8 255
b 17 9
b 18 10
b 19 11 888
b 20 555 556
b 21 11 555
b 22 745 746
b 23 12 745
b 24 707 708
b 25 13 707
b 26 14
b 27 463 464
b 28 15 463
b 29 16 240
b 30 16 615
b 31 17 245
b 32 17 616
b 33 18 336
b 34 19 493
b 35 19 448
b 36 20 494
b 37 21 825
b 38 21 784
b 39 22 295
b 40 22 835
b 41 23
b 42 24
b 43 25
b 44 26 771
b 45 859 860
b 46 26 859
b 47 26 332
b 48 27 459
b 49 28
b 50 29
b 51 30
b 52 241 242
b 53 31 242
b 54 31 303
b 55 577 578
b 56 32 577
b 57 33 569
b 58 281 282
b 59 33 282
b 60 34
b 61 35 867
b 62 36
b 63 583 584
b 64 37 584
b 65 197 198
b 66 37 198
b 67 51 765
b 68 51 393
b 69 51 592
b 70 591 592
b 71 37 591
b 72 38 848
b 73 39 337
b 74 39 599
b 75 695 696
b 76 40 695
b 77 40 772
b 78 41 755
b 79 42
b 80 43
b 81 667 668
b 82 44 668
b 83 44 231
b 84 44 530
b 85 45
b 86 545 546
b 87 46 545
b 88 47 647
b 89 48 340
b 90 49 560
b 91 429 430
b 92 50 429
b 93 52 766
b 94 53 385
b 95 54
b 96 787 788
b 97 55 788
b 98 56 864
b 99 237 238
b 100 57 238
b 101 58 861
b 102 59 423
b 103 59 741
b 104 60 571
b 105 61 298
b 106 717 718
b 107 62 718
b 108 63 658
b 109 561 562
b 110 63 561
b 111 64
b 112 65 839
b 113 66 479
b 114 67 779
b 115 68 780
b 116 69 288
b 117 70 220
b 118 71 305
b 119 71 249
b 120 71 416
b 121 72 250
b 122 799 800
b 123 73 799
b 124 74
b 125 75 353
b 126 75 786
b 127 75 618
b 128 90 557
b 129 90 462
b 130 90 226
b 131 225 226
b 132 76 225
b 133 77
b 134 78 792
b 135 213 214
b 136 78 214
b 137 78 603
b 138 79 604
b 139 79 315
b 140 80 794
b 141 80 885
b 142 781 782
b 143 81 781
b 144 81 801
b 145 82
b 146 83
b 147 373 374
b 148 84 374
b 149 85 849
b 150 86 775
b 151 86 850
b 152 87 359
b 153 653 654
b 154 101 653
b 155 101 750
b 156 749 750
b 157 87 749
b 158 253 254
b 159 87 254
b 160 88 286
b 161 89 451
b 162 91 716
b 163 92 660
b 164 317 318
b 165 92 317
b 166 93 620
b 167 93 316
b 168 94 622
b 169 95 209
b 170 95 820
b 171 95 261
b 172 96 210
b 173 97 467
b 174 97 474
b 175 98 456
b 176 98 565
b 177 99 904
b 178 99 923
b 179 100 924
b 180 102 669
b 181 865 866
b 182 102 866
b 183 102 290
b 184 579 580
b 185 103 580
b 186 104 558
b 187 307 308
b 188 104 307
b 189 105 492
b 190 106 207
b 191 107
b 192 199 200
b 193 108 199
b 194 108 547
b 195 109 913
b 196 109 548
b 197 751 752
b 198 110 751
b 199 111 598
b 200 111 322
b 201 112 341
b 202 112 566
b 203 113 408
b 204 747 748
b 205 113 747
b 206 114 908
b 207 115
b 208 311 312
b 209 116 312
b 210 711 712
b 211 131 712
b 212 131 612
b 213 611 612
b 214 117 611
b 215 118 641
b 216 361 362
b 217 119 361
b 218 119 586
b 219 120 418
b 220 120 533
b 221 120 299
b 222 915 916
b 223 121 915
b 224 121 380
b 225 122 527
b 226 123 688
b 227 123 574
b 228 124 301
b 229 813 814
b 230 124 814
b 231 125 345
b 232 126 677
b 233 126 342
b 234 127
b 235 128 872
b 236 129 874
b 237 130 404
b 238 132 475
b 239 132 582
b 240 133 410
b 241 134 436
b 242 395 396
b 243 134 395
b 244 135 589
b 245 135 445
b 246 135 382
b 247 136
b 248 137 397
b 249 137 656
b 250 137 439
b 251 138 309
b 252 138 553
b 253 139 896
b 254 140 678
b 255 141 458
b 256 141 399
b 257 142 817
b 258 142 212
b 259 143
b 260 144 422
b 261 145 267
b 262 837 838
b 263 145 838
b 264 146 535
b 265 146 713
b 266 147 714
b 267 148 477
b 268 759 760
b 269 148 760
b 270 149
b 271 151 857
b 272 151 472
b 273 471 472
b 274 150 471
b 275 721 722
b 276 152 722
b 277 153 777
b 278 154
b 279 169 387
b 280 169 893
b 281 169 504
b 282 503 504
b 283 155 503
b 284 155 400
b 285 156 818
b 286 156 623
b 287 157
b 288 172 541
b 289 769 770
b 290 172 770
b 291 172 484
b 292 483 484
b 293 158 483
b 294 159
b 295 891 892
b 296 160 891
b 297 161 216
b 298 161 737
b 299 405 406
b 300 175 405
b 301 175 625
b 302 625 626
b 303 176 626
b 304 176 910
b 305 909 910
b 306 162 909
b 307 163 845
b 308 501 502
b 309 163 502
b 310 163 292
b 311 164
b 312 165 858
b 313 165 497
b 314 166 601
b 315 166 383
b 316 167
b 317 679 680
b 318 182 679
b 319 182 672
b 320 671 672
b 321 168 671
b 322 170
b 323 171
b 324 173 587
b 325 173 593
b 326 174 319
b 327 499 500
b 328 174 499
b 329 539 540
b 330 177 540
b 331 177 293
b 332 179 520
b 333 519 520
b 334 178 519
b 335 807 808
b 336 180 807
b 337 180 384
b 338 181 235
b 339 181 691
b 340 183
b 341 184
b 342 185 229
b 343 186 542
b 344 351 352
b 345 187 352
b 346 188
b 347 275 276
b 348 189 275
b 349 190
b 350 413 414
b 351 191 414
b 352 192 605
b 353 192 344
b 354 193
b 355 194
b 356 195 692
b 357 325 326
b 358 195 325
b 359 196
b 360 201
b 361 202
b 362 203
b 363 204
b 364 205
b 365 208
b 366 211
b 367 215
b 368 217 218
b 369 219
b 370 223
b 371 224
b 372 227
b 373 228
b 374 230
b 375 232
b 376 233
b 377 234
b 378 236
b 379 239
b 380 243
b 381 244
b 382 246
b 383 247
b 384 248
b 385 251
b 386 252
b 387 256
b 388 257
b 389 258
b 390 259
b 391 260
b 392 262
b 393 263
b 394 265
b 395 266
b 396 268
b 397 269
b 398 270
b 399 271 272
b 400 273
b 401 274
b 402 277
b 403 278
b 404 279
b 405 280
b 406 283
b 407 284
b 408 285
b 409 287
b 410 289
b 411 291
b 412 294
b 413 296
b 414 297
b 415 300
b 416 302
b 417 304
b 418 306
b 419 310
b 420 313 314
b 421 320
b 422 321
b 423 323 324
b 424 327 328
b 425 329 330
b 426 331
b 427 333
b 428 334
b 429 335
b 430 338
b 431 339
b 432 343
b 433 346
b 434 347
b 435 348
b 436 349 350
b 437 354
b 438 355
b 439 357
b 440 358
b 441 360
b 442 363
b 443 364
b 444 365
b 445 366
b 446 367
b 447 368
b 448 369
b 449 370
b 450 371
b 451 372
b 452 375 376
b 453 377 378
b 454 379
b 455 381
b 456 386
b 457 388
b 458 389
b 459 390
b 460 391
b 461 392
b 462 394
b 463 398
b 464 401 402
b 465 403
b 466 407
b 467 409
b 468 411 412
b 469 415
b 470 417
b 471 419
b 472 420
b 473 421
b 474 424
b 475 425
b 476 426
b 477 427
b 478 428
b 479 431 432
b 480 433
b 481 434
b 482 435
b 483 437
b 484 438
b 485 440
b 486 441 442
b 487 443
b 488 444
b 489 446
b 490 447
b 491 449
b 492 450
b 493 452
b 494 453
b 495 454
b 496 455
b 497 457
b 498 460
b 499 461
b 500 465
b 501 466
b 502 468
b 503 469
b 504 470
b 505 473
b 506 476
b 507 478
b 508 480
b 509 481 482
b 510 485 486
b 511 487
b 512 488
b 513 489 490
b 514 491
b 515 495
b 516 496
b 517 498
b 518 507
b 519 508
b 520 509
b 521 510
b 522 511
b 523 512
b 524 513
b 525 514
b 526 515 516
b 527 517 518
b 528 521 522
b 529 523 524
b 530 525 526
b 531 528
b 532 529
b 533 531
b 534 532
b 535 534
b 536 536
b 537 537
b 538 538
b 539 543
b 540 544
b 541 549
b 542 550
b 543 551
b 544 552
b 545 554
b 546 559
b 547 563
b 548 564
b 549 567
b 550 568
b 551 570
b 552 572
b 553 573
b 554 575 576
b 555 581
b 556 585
b 557 588
b 558 590
b 559 594
b 560 595
b 561 596
b 562 597
b 563 600
b 564 602
b 565 606
b 566 607
b 567 608
b 568 609
b 569 610
b 570 617
b 571 619
b 572 621
b 573 624
b 574 627
b 575 628
b 576 629 630
b 577 631
b 578 632
b 579 633 634
b 580 635 636
b 581 637
b 582 638
b 583 639 640
b 584 642
b 585 643 644
b 586 645
b 587 646
b 588 648
b 589 649 650
b 590 651
b 591 652
b 592 655
b 593 657
b 594 659
b 595 661
b 596 662
b 597 663 664
b 598 665 666
b 599 670
b 600 673
b 601 674
b 602 675
b 603 676
b 604 681
b 605 682
b 606 683
b 607 684
b 608 685
b 609 686
b 610 687
b 611 689 690
b 612 697 698
b 613 700
b 614 703 704
b 615 705
b 616 706
b 617 709 710
b 618 715
b 619 719 720
b 620 723 724
b 621 725
b 622 726
b 623 727 728
b 624 729
b 625 730
b 626 731
b 627 732
b 628 733
b 629 734
b 630 735
b 631 736
b 632 738
b 633 739 740
b 634 742
b 635 743
b 636 744
b 637 753
b 638 754
b 639 756
b 640 757
b 641 758
b 642 761
b 643 762
b 644 763 764
b 645 767 768
b 646 773
b 647 774
b 648 776
b 649 778
b 650 783
b 651 785
b 652 789
b 653 790
b 654 791
b 655 793
b 656 795
b 657 796
b 658 797
b 659 798
b 660 802
b 661 803
b 662 804
b 663 805
b 664 806
b 665 809 810
b 666 811
b 667 812
b 668 815
b 669 816
b 670 819
b 671 821
b 672 822
b 673 823
b 674 824
b 675 826
b 676 827
b 677 828
b 678 829
b 679 830
b 680 831
b 681 832
b 682 833
b 683 834
b 684 836
b 685 840
b 686 841
b 687 842
b 688 843
b 689 844
b 690 846
b 691 847
b 692 851
b 693 852
b 694 853 854
b 695 855
b 696 856
b 697 862
b 698 863
b 699 868
b 700 869 870
b 701 871
b 702 873
b 703 875
b 704 876
b 705 877
b 706 878
b 707 879
b 708 880
b 709 881
b 710 882
b 711 883
b 712 884
b 713 886
b 714 887
b 715 889
b 716 890
b 717 894
b 718 895
b 719 897
b 720 898
b 721 899 900
b 722 901
b 723 902
b 724 903
b 725 905
b 726 906
b 727 907
b 728 911
b 729 912
b 730 914
b 731 917
b 732 918
b 733 919
b 734 920
b 735 921 922
1 2
1 3
1 7
1 8
1 14
1 15
1 16
1 17
1 18
1 19
1 22
1 24
1 26
1 27
1 29
1 31
1 33
1 34
1 36
1 37
1 39
1 41
1 42
1 43
1 44
1 48
1 49
1 50
1 51
1 52
1 55
1 57
1 60
1 61
1 62
1 63
1 72
1 73
1 75
1 78
1 79
1 80
1 81
1 85
1 86
1 88
1 89
1 90
1 91
1 93
1 94
1 95
1 96
1 98
1 99
1 101
1 102
1 104
1 105
1 106
1 108
1 111
1 112
1 113
1 114
1 115
1 116
1 117
1 118
1 121
1 122
1 124
1 125
1 128
1 133
1 134
1 138
1 140
1 142
1 145
1 146
1 147
1 149
1 150
1 152
1 160
1 161
1 162
1 163
1 166
1 168
1 169
1 172
1 173
1 175
1 177
1 179
1 180
1 184
1 186
1 189
1 190
1 191
1 192
1 195
1 197
1 199
1 201
1 203
1 206
1 207
1 208
1 210
1 215
1 216
1 219
1 222
1 225
1 226
1 228
1 231
1 232
1 234
1 235
1 236
1 237
1 238
1 240
1 241
1 244
1 247
1 248
1 251
1 253
1 254
1 255
1 257
1 259
1 260
1 261
1 264
1 266
1 267
1 270
1 271
1 275
1 277
1 278
1 279
1 285
1 287
1 288
1 294
1 295
1 297
1 299
1 307
1 311
1 312
1 314
1 316
1 317
1 322
1 323
1 324
1 326
1 329
1 332
1 335
1 338
1 340
1 341
1 342
1 343
1 344
1 346
1 347
1 349
1 350
1 352
1 354
1 355
1 356
1 359
1 360
1 361
1 362
1 363
1 364
1 365
1 366
1 367
1 368
1 369
1 370
1 371
1 372
1 373
1 374
1 375
1 376
1 377
1 378
1 379
1 380
1 381
1 382
1 383
1 384
1 385
1 386
1 387
1 388
1 389
1 390
1 391
1 392
1 393
1 394
1 395
1 396
1 397
1 398
1 399
1 400
1 401
1 402
1 403
1 404
1 405
1 406
1 407
1 408
1 409
1 410
1 411
1 412
1 413
1 414
1 415
1 416
1 417
1 418
1 419
1 420
1 421
1 422
1 423
1 424
1 425
1 426
1 427
1 428
1 429
1 430
1 431
1 432
1 433
1 434
1 435
1 436
1 437
1 438
1 439
1 440
1 441
1 442
1 443
1 444
1 445
1 446
1 447
1 448
1 449
1 450
1 451
1 452
1 453
1 454
1 455
1 456
1 457
1 458
1 459
1 460
1 461
1 462
1 463
1 464
1 465
1 466
1 467
1 468
1 469
1 470
1 471
1 472
1 473
1 474
1 475
1 476
1 477
1 478
1 479
1 480
1 481
1 482
1 483
1 484
1 485
1 486
1 487
1 488
1 489
1 490
1 491
1 492
1 493
1 494
1 495
1 496
1 497
1 498
1 499
1 500
1 501
1 502
1 503
1 504
1 505
1 506
1 507
1 508
1 509
1 510
1 511
1 512
1 513
1 514
1 515
1 516
1 517
1 518
1 519
1 520
1 521
1 522
1 523
1 524
1 525
1 526
1 527
1 528
1 529
1 530
1 531
1 532
1 533
1 534
1 535
1 536
1 537
1 538
1 539
1 540
1 541
1 542
1 543
1 544
1 545
1 546
1 547
1 548
1 549
1 550
1 551
1 552
1 553
1 554
1 555
1 556
1 557
1 558
1 559
1 560
1 561
1 562
1 563
1 564
1 565
1 566
1 567
1 568
1 569
1 570
1 571
1 572
1 573
1 574
1 575
1 576
1 577
1 578
1 579
1 580
1 581
1 582
1 583
1 584
1 585
1 586
1 587
1 588
1 589
1 590
1 591
1 592
1 593
1 594
1 595
1 596
1 597
1 598
1 599
1 600
1 601
1 602
1 603
1 604
1 605
1 606
1 607
1 608
1 609
1 610
1 611
1 612
1 613
1 614
1 615
1 616
1 617
1 618
1 619
1 620
1 621
1 622
1 623
1 624
1 625
1 626
1 627
1 628
1 629
1 630
1 631
1 632
1 633
1 634
1 635
1 636
1 637
1 638
1 639
1 640
1 641
1 642
1 643
1 644
1 645
1 646
1 647
1 648
1 649
1 650
1 651
1 652
1 653
1 654
1 655
1 656
1 657
1 658
1 659
1 660
1 661
1 662
1 663
1 664
1 665
1 666
1 667
1 668
1 669
1 670
1 671
1 672
1 673
1 674
1 675
1 676
1 677
1 678
1 679
1 680
1 681
1 682
1 683
1 684
1 685
1 686
1 687
1 688
1 689
1 690
1 691
1 692
1 693
1 694
1 695
1 696
1 697
1 698
1 699
1 700
1 701
1 702
1 703
1 704
1 705
1 706
1 707
1 708
1 709
1 710
1 711
1 712
1 713
1 714
1 715
1 716
1 717
1 718
1 719
1 720
1 721
1 722
1 723
1 724
1 725
1 726
1 727
1 728
1 729
1 730
1 731
1 732
1 733
1 734
1 735
3 4
4 6
5 6
8 13
9 10
10 11
11 12
12 13
19 21
20 21
22 23
24 25
27 28
29 30
31 32
34 35
37 38
39 40
44 46
44 47
45 46
52 53
53 54
55 56
57 59
58 59
63 64
64 66
64 71
65 66
67 68
67 69
69 70
70 71
73 74
75 76
76 77
81 82
82 83
82 84
86 87
91 92
96 97
99 100
102 103
106 107
108 110
109 110
118 119
118 120
122 123
125 126
125 127
128 129
128 130
130 131
131 132
134 136
134 137
135 136
138 139
140 141
142 143
143 144
147 148
150 151
152 157
152 159
153 154
154 155
155 156
156 157
158 159
163 165
164 165
166 167
169 170
169 171
173 174
175 176
177 178
180 182
180 183
181 182
184 185
186 188
187 188
192 193
193 194
195 196
197 198
199 200
201 202
203 205
204 205
208 209
210 211
211 212
212 213
213 214
216 217
217 218
219 220
219 221
222 223
223 224
226 227
228 230
229 230
232 233
238 239
241 243
242 243
244 245
244 246
248 249
248 250
251 252
255 256
257 258
261 263
262 263
264 265
267 269
268 269
271 272
272 273
273 274
275 276
279 280
279 281
281 282
282 283
283 284
285 286
288 290
288 291
289 290
291 292
292 293
295 296
297 298
299 300
300 301
301 302
302 303
303 304
304 305
305 306
307 309
307 310
308 309
312 313
314 315
317 318
318 319
319 320
320 321
324 325
326 328
327 328
329 330
330 331
332 333
333 334
335 336
336 337
338 339
344 345
347 348
350 351
352 353
356 358
357 358
